%SETS
JOBS     = 1..2;
MACHINES = 1..23;
SPEED    = 1;

time               = array3d(JOBS,MACHINES,1..SPEED,[80, 20, 67, 22, 95, 56, 47, 33, 79, 51, 61, 11, 65, 65, 65, 94, 71, 42, 49, 72, 15, 70, 70, 28, 21, 38, 42, 61, 49, 98, 19, 28, 24, 68, 32, 51, 31, 24, 19, 69, 22, 27, 43, 83, 18, 85]);
energy             = array3d(JOBS,MACHINES,1..SPEED,[44, 81, 51, 80, 38, 57, 62, 71, 45, 60, 54, 89, 52, 52, 52, 39, 49, 65, 61, 48, 86, 49, 49, 75, 81, 68, 65, 54, 61, 37, 82, 75, 78, 50, 72, 60, 73, 78, 82, 50, 80, 76, 65, 43, 83, 42]);
precedence         = array2d(JOBS,MACHINES,[12,7,22,20,3,14,2,15,6,13,18,8,1,17,4,9,21,0,11,10,5,16,19,8,16,10,22,15,0,13,5,11,17,14,12,7,6,18,2,1,20,19,3,21,4,9]);